T = 150;
V = 10;
Q = 15;
L = 11;
C = 2;
P = 10;
time = [|  0, 17, 11, 19, 11, 19, 19, 19, 19, 17, 11, 13, 17, 17, 13, 17, 13,  6, 17, 13,  8,  8,  8,  8,  8,  8,  8,  8,  8,  8,  8,  8,  8,  8,  8,  8,  8,  8,  8,  8,
        | 17,  0, 10, 12, 10, 12, 12, 12, 12, 10, 10, 20,  0,  0, 19, 10, 19, 12, 10, 11, 11, 11, 11, 11, 11, 11, 11, 11, 11, 11, 11, 11, 11, 11, 11, 11, 11, 11, 11, 11,
        | 11, 10,  0,  9,  0,  9,  9,  9,  9, 17,  0, 20, 10, 10, 20, 17, 20,  6, 17,  3, 10, 10, 10, 10, 10, 10, 10, 10, 10, 10, 10, 10, 10, 10, 10, 10, 10, 10, 10, 10,
        | 19, 12,  9,  0,  9,  0,  0,  0,  0, 22,  9, 27, 12, 12, 27, 22, 27, 14, 22,  7, 17, 17, 17, 17, 17, 17, 17, 17, 17, 17, 17, 17, 17, 17, 17, 17, 17, 17, 17, 17,
        | 11, 10,  0,  9,  0,  9,  9,  9,  9, 17,  0, 20, 10, 10, 20, 17, 20,  6, 17,  3, 10, 10, 10, 10, 10, 10, 10, 10, 10, 10, 10, 10, 10, 10, 10, 10, 10, 10, 10, 10,
        | 19, 12,  9,  0,  9,  0,  0,  0,  0, 22,  9, 27, 12, 12, 27, 22, 27, 14, 22,  7, 17, 17, 17, 17, 17, 17, 17, 17, 17, 17, 17, 17, 17, 17, 17, 17, 17, 17, 17, 17,
        | 19, 12,  9,  0,  9,  0,  0,  0,  0, 22,  9, 27, 12, 12, 27, 22, 27, 14, 22,  7, 17, 17, 17, 17, 17, 17, 17, 17, 17, 17, 17, 17, 17, 17, 17, 17, 17, 17, 17, 17,
        | 19, 12,  9,  0,  9,  0,  0,  0,  0, 22,  9, 27, 12, 12, 27, 22, 27, 14, 22,  7, 17, 17, 17, 17, 17, 17, 17, 17, 17, 17, 17, 17, 17, 17, 17, 17, 17, 17, 17, 17,
        | 19, 12,  9,  0,  9,  0,  0,  0,  0, 22,  9, 27, 12, 12, 27, 22, 27, 14, 22,  7, 17, 17, 17, 17, 17, 17, 17, 17, 17, 17, 17, 17, 17, 17, 17, 17, 17, 17, 17, 17,
        | 17, 10, 17, 22, 17, 22, 22, 22, 22,  0, 17, 13, 10, 10, 12,  0, 12, 15,  0, 18, 10, 10, 10, 10, 10, 10, 10, 10, 10, 10, 10, 10, 10, 10, 10, 10, 10, 10, 10, 10,
        | 11, 10,  0,  9,  0,  9,  9,  9,  9, 17,  0, 20, 10, 10, 20, 17, 20,  6, 17,  3, 10, 10, 10, 10, 10, 10, 10, 10, 10, 10, 10, 10, 10, 10, 10, 10, 10, 10, 10, 10,
        | 13, 20, 20, 27, 20, 27, 27, 27, 27, 13, 20,  0, 20, 20,  2, 13,  2, 15, 13, 22, 11, 11, 11, 11, 11, 11, 11, 11, 11, 11, 11, 11, 11, 11, 11, 11, 11, 11, 11, 11,
        | 17,  0, 10, 12, 10, 12, 12, 12, 12, 10, 10, 20,  0,  0, 19, 10, 19, 12, 10, 11, 11, 11, 11, 11, 11, 11, 11, 11, 11, 11, 11, 11, 11, 11, 11, 11, 11, 11, 11, 11,
        | 17,  0, 10, 12, 10, 12, 12, 12, 12, 10, 10, 20,  0,  0, 19, 10, 19, 12, 10, 11, 11, 11, 11, 11, 11, 11, 11, 11, 11, 11, 11, 11, 11, 11, 11, 11, 11, 11, 11, 11,
        | 13, 19, 20, 27, 20, 27, 27, 27, 27, 12, 20,  2, 19, 19,  0, 12,  0, 15, 12, 22, 10, 10, 10, 10, 10, 10, 10, 10, 10, 10, 10, 10, 10, 10, 10, 10, 10, 10, 10, 10,
        | 17, 10, 17, 22, 17, 22, 22, 22, 22,  0, 17, 13, 10, 10, 12,  0, 12, 15,  0, 18, 10, 10, 10, 10, 10, 10, 10, 10, 10, 10, 10, 10, 10, 10, 10, 10, 10, 10, 10, 10,
        | 13, 19, 20, 27, 20, 27, 27, 27, 27, 12, 20,  2, 19, 19,  0, 12,  0, 15, 12, 22, 10, 10, 10, 10, 10, 10, 10, 10, 10, 10, 10, 10, 10, 10, 10, 10, 10, 10, 10, 10,
        |  6, 12,  6, 14,  6, 14, 14, 14, 14, 15,  6, 15, 12, 12, 15, 15, 15,  0, 15,  8,  6,  6,  6,  6,  6,  6,  6,  6,  6,  6,  6,  6,  6,  6,  6,  6,  6,  6,  6,  6,
        | 17, 10, 17, 22, 17, 22, 22, 22, 22,  0, 17, 13, 10, 10, 12,  0, 12, 15,  0, 18, 10, 10, 10, 10, 10, 10, 10, 10, 10, 10, 10, 10, 10, 10, 10, 10, 10, 10, 10, 10,
        | 13, 11,  3,  7,  3,  7,  7,  7,  7, 18,  3, 22, 11, 11, 22, 18, 22,  8, 18,  0, 12, 12, 12, 12, 12, 12, 12, 12, 12, 12, 12, 12, 12, 12, 12, 12, 12, 12, 12, 12,
        |  8, 11, 10, 17, 10, 17, 17, 17, 17, 10, 10, 11, 11, 11, 10, 10, 10,  6, 10, 12,  0,  0,  0,  0,  0,  0,  0,  0,  0,  0,  0,  0,  0,  0,  0,  0,  0,  0,  0,  0,
        |  8, 11, 10, 17, 10, 17, 17, 17, 17, 10, 10, 11, 11, 11, 10, 10, 10,  6, 10, 12,  0,  0,  0,  0,  0,  0,  0,  0,  0,  0,  0,  0,  0,  0,  0,  0,  0,  0,  0,  0,
        |  8, 11, 10, 17, 10, 17, 17, 17, 17, 10, 10, 11, 11, 11, 10, 10, 10,  6, 10, 12,  0,  0,  0,  0,  0,  0,  0,  0,  0,  0,  0,  0,  0,  0,  0,  0,  0,  0,  0,  0,
        |  8, 11, 10, 17, 10, 17, 17, 17, 17, 10, 10, 11, 11, 11, 10, 10, 10,  6, 10, 12,  0,  0,  0,  0,  0,  0,  0,  0,  0,  0,  0,  0,  0,  0,  0,  0,  0,  0,  0,  0,
        |  8, 11, 10, 17, 10, 17, 17, 17, 17, 10, 10, 11, 11, 11, 10, 10, 10,  6, 10, 12,  0,  0,  0,  0,  0,  0,  0,  0,  0,  0,  0,  0,  0,  0,  0,  0,  0,  0,  0,  0,
        |  8, 11, 10, 17, 10, 17, 17, 17, 17, 10, 10, 11, 11, 11, 10, 10, 10,  6, 10, 12,  0,  0,  0,  0,  0,  0,  0,  0,  0,  0,  0,  0,  0,  0,  0,  0,  0,  0,  0,  0,
        |  8, 11, 10, 17, 10, 17, 17, 17, 17, 10, 10, 11, 11, 11, 10, 10, 10,  6, 10, 12,  0,  0,  0,  0,  0,  0,  0,  0,  0,  0,  0,  0,  0,  0,  0,  0,  0,  0,  0,  0,
        |  8, 11, 10, 17, 10, 17, 17, 17, 17, 10, 10, 11, 11, 11, 10, 10, 10,  6, 10, 12,  0,  0,  0,  0,  0,  0,  0,  0,  0,  0,  0,  0,  0,  0,  0,  0,  0,  0,  0,  0,
        |  8, 11, 10, 17, 10, 17, 17, 17, 17, 10, 10, 11, 11, 11, 10, 10, 10,  6, 10, 12,  0,  0,  0,  0,  0,  0,  0,  0,  0,  0,  0,  0,  0,  0,  0,  0,  0,  0,  0,  0,
        |  8, 11, 10, 17, 10, 17, 17, 17, 17, 10, 10, 11, 11, 11, 10, 10, 10,  6, 10, 12,  0,  0,  0,  0,  0,  0,  0,  0,  0,  0,  0,  0,  0,  0,  0,  0,  0,  0,  0,  0,
        |  8, 11, 10, 17, 10, 17, 17, 17, 17, 10, 10, 11, 11, 11, 10, 10, 10,  6, 10, 12,  0,  0,  0,  0,  0,  0,  0,  0,  0,  0,  0,  0,  0,  0,  0,  0,  0,  0,  0,  0,
        |  8, 11, 10, 17, 10, 17, 17, 17, 17, 10, 10, 11, 11, 11, 10, 10, 10,  6, 10, 12,  0,  0,  0,  0,  0,  0,  0,  0,  0,  0,  0,  0,  0,  0,  0,  0,  0,  0,  0,  0,
        |  8, 11, 10, 17, 10, 17, 17, 17, 17, 10, 10, 11, 11, 11, 10, 10, 10,  6, 10, 12,  0,  0,  0,  0,  0,  0,  0,  0,  0,  0,  0,  0,  0,  0,  0,  0,  0,  0,  0,  0,
        |  8, 11, 10, 17, 10, 17, 17, 17, 17, 10, 10, 11, 11, 11, 10, 10, 10,  6, 10, 12,  0,  0,  0,  0,  0,  0,  0,  0,  0,  0,  0,  0,  0,  0,  0,  0,  0,  0,  0,  0,
        |  8, 11, 10, 17, 10, 17, 17, 17, 17, 10, 10, 11, 11, 11, 10, 10, 10,  6, 10, 12,  0,  0,  0,  0,  0,  0,  0,  0,  0,  0,  0,  0,  0,  0,  0,  0,  0,  0,  0,  0,
        |  8, 11, 10, 17, 10, 17, 17, 17, 17, 10, 10, 11, 11, 11, 10, 10, 10,  6, 10, 12,  0,  0,  0,  0,  0,  0,  0,  0,  0,  0,  0,  0,  0,  0,  0,  0,  0,  0,  0,  0,
        |  8, 11, 10, 17, 10, 17, 17, 17, 17, 10, 10, 11, 11, 11, 10, 10, 10,  6, 10, 12,  0,  0,  0,  0,  0,  0,  0,  0,  0,  0,  0,  0,  0,  0,  0,  0,  0,  0,  0,  0,
        |  8, 11, 10, 17, 10, 17, 17, 17, 17, 10, 10, 11, 11, 11, 10, 10, 10,  6, 10, 12,  0,  0,  0,  0,  0,  0,  0,  0,  0,  0,  0,  0,  0,  0,  0,  0,  0,  0,  0,  0,
        |  8, 11, 10, 17, 10, 17, 17, 17, 17, 10, 10, 11, 11, 11, 10, 10, 10,  6, 10, 12,  0,  0,  0,  0,  0,  0,  0,  0,  0,  0,  0,  0,  0,  0,  0,  0,  0,  0,  0,  0,
        |  8, 11, 10, 17, 10, 17, 17, 17, 17, 10, 10, 11, 11, 11, 10, 10, 10,  6, 10, 12,  0,  0,  0,  0,  0,  0,  0,  0,  0,  0,  0,  0,  0,  0,  0,  0,  0,  0,  0,  0|];
l =     [ 11,  7,  5, 10,  5, 10, 10, 10, 10,  3,  5,  1,  7,  7,  6,  3,  6,  2,  3,  9];
a =     [  9, 11, 26, 17, 19, 17, 30, 17, 28, 10, 30, 47, 49, 44, 55, 56, 69, 43, 65, 38];
b =     [ 30, 46, 49, 55, 35, 51, 60, 41, 66, 25, 75,101, 96,102,103,120,113, 98,109, 93];
s =     [ 10, 16, 13, 15, 16, 17, 12, 12, 15, 10, 10, 16, 13, 15, 16, 17, 12, 12, 15, 10];
q =     [  3,  2,  3,  3,  2,  1,  4,  2,  3,  3, -3, -2, -3, -3, -2, -1, -4, -2, -3, -3];
